(set-logic QF_S)
(declare-fun var0 () String)
(assert (str.in.re var0 (re.++ (re.union (re.union (str.to.re "0") (str.to.re "1")) (re.union (str.to.re "22") (str.to.re "3"))) (re.++ (re.union (re.union (str.to.re "44") (str.to.re "5")) (re.union (str.to.re "6") (str.to.re "77"))) (re.++ (re.* (re.union (str.to.re "888") (str.to.re "9"))) (re.++ (re.+ (re.union (str.to.re "aaa") (str.to.re "b"))) (re.++ (re.union (re.* (str.to.re "cc")) (re.* (str.to.re "dd"))) (re.++ (re.* (re.+ (str.to.re "ee"))) (re.++ (re.* (re.+ (str.to.re "ff"))) (re.++ (re.* (re.+ (str.to.re "gg"))) (re.++ (re.+ (re.union (str.to.re "hh") (str.to.re "ii"))) (re.++ (re.+ (re.union (str.to.re "j") (str.to.re "k"))) (re.++ (re.union (re.+ (str.to.re "ll")) (re.+ (str.to.re "mm"))) (re.++ (re.union (re.+ (str.to.re "nnn")) (re.+ (str.to.re "oo"))) (re.++ (re.union (re.+ (str.to.re "pp")) (re.+ (str.to.re "qqq"))) (re.++ (re.union (re.+ (str.to.re "rrr")) (re.+ (str.to.re "s"))) (re.+ (re.+ (str.to.re "t")))))))))))))))))))
(check-sat)